1	70
1	28
1	46
1	81_0
70	9
70	34
70	13
28	35
28	15
62	36
62	49
36	64
36	61
46	8
46	2
8	11
8	32
34	14
34	3
14	42
14	58
35	6
3	91
3	78
64	7
17	39
39	43
2	83
2	48
2	77
83	62
9	17
67	57
57	74
61	10
48	67
48	89
42	18
42	51
11	55
55	75
55	27
7	30
32	12
32	95
30	79
30	76
6	24
6	20
10	56
43	33
74	40
15	54
79	93
79	94
77	71
18	72
75	73
75	25
75	38
12	85
91	92
91	22
92	80
24	4
56	16
78	19
95	21
33	23
13	26
40	29
54	31
93	37
20	41
71	44
71	84
72	47
73	52
58	53
49	63
85	65
22	69
89	88
80	5
81_0	81_1
dummy_root	1
