39	18
18	43
1	10
1	39
10	32
10	4
10	38_0
10	17_0
32	15
32	33
15	53
54	30
7	14
7	22
7	21
7	11_0
14	47
43	2
30	25
5	24
22	46
53	20
53	16_0
47	48
3	6
21	9
2	12
25	31
24	34
46	37
48	44
40	49
38_0	38_1
38_0	54
38_0	7
38_0	5
38_0	3
38_0	41
38_1	13
11_0	11_1
11_0	11_2
11_0	11_7
11_0	11_8
11_0	11_10
11_0	11_13
11_0	11_17
11_1	11_4
11_1	11_5
11_1	11_9
11_1	11_11
11_1	11_12
11_1	11_14
11_1	11_15
11_1	11_16
11_1	40
11_1	23
11_1	27
11_1	35
11_1	36
11_1	45
11_1	52
11_2	11_3
11_4	55
11_5	11_6
11_7	19
11_13	50
11_14	29
17_0	17_1
17_0	26
17_1	28
16_0	16_1
16_0	42
dummy_root	1
