1	26
1	76
26	2
76	3_0
2	22
2	14
18	64
51	86
86	95
80	67
22	19
22	8_0
14	79
14	32
14	73
14	96
14	33
67	9
67	62
34	66
34	55
64	102
95	94
13	84
54	45
54	60
79	44
9	70
66	71
66	81
102	25
102	65
42	99
94	40
27	37
27	59
46	91
19	23
84	15
92	49
92	24
45	63
44	101
62	90
12	6
70	7
60	10
31	16
71	17
25	36
99	52
40	61
91	72
23	74
37	75
15	83
49	85
11	89
63	98
101	103
90	104
97	21
3_0	3_1
3_0	3_2
3_0	20_0
20_0	20_1
20_0	20_2
20_0	18
20_0	80
20_0	13
20_0	12
20_1	42
20_1	92
20_1	43
20_2	34
20_2	41
20_2	28_0
28_0	28_1
28_0	11
28_1	28_2
28_1	54
28_1	27
28_1	97
28_1	68
28_2	47
8_0	8_1
8_0	8_3
8_0	8_4
8_0	39
8_1	8_2
8_1	38
8_2	31
8_3	8_5
8_3	78
8_4	51
8_4	46
8_4	29
8_4	77
dummy_root	1
