14	4
14	22
14	20
14	24
14	49
14	17_0
1	14
1	57
1	12
1	54
53	30_0
53	44_0
46	16
46	8
4	37_0
16	41
57	6_0
38	11_0
34	15
43	19
22	21
9	23
5	31
41	32
12	45
10	47
51	52
17_0	17_1
17_0	17_2
17_0	46
17_0	38
17_0	18_0
17_0	27_0
17_1	17_3
17_1	9
17_1	13
17_2	33
17_3	53
17_3	10
30_0	30_1
30_0	34
30_0	51
30_1	30_2
30_2	26
44_0	44_1
44_0	44_3
44_0	44_4
44_0	5
44_0	40
44_1	44_2
44_1	36
44_2	28
44_3	44_5
44_3	44_6
44_3	44_7
44_3	7_0
44_3	55_0
44_6	44_8
44_6	42
44_6	35_0
44_8	43
44_8	25
37_0	37_1
37_0	37_2
37_0	48
37_0	50
37_1	29
37_1	56
37_2	39
6_0	6_1
7_0	7_1
11_0	11_1
18_0	18_1
27_0	27_1
35_0	35_1
55_0	55_1
dummy_root	1
