5	18
5	17
5	19
18	24
18	1
2	5
2	7_0
52	29
52	11
24	62
39	20_0
37	28
29	44
29	26_0
62	51
62	53
17	13
22	56
28	8
51	43
13	10
53	16
40	46_0
19	4
56	45
8	66
8	67
55	57
1	3
1	35
43	6
10	9
41	12
11	15
16	31
4	36
45	38
66	42
66	49
58	59
57	64
44	25
7_0	7_1
7_0	37
7_0	14
7_1	7_2
7_1	52
7_1	22
7_1	23_0
7_2	7_3
7_3	7_4
7_3	39
7_4	7_5
20_0	20_1
20_1	20_2
20_1	20_4
20_1	32
20_2	20_3
20_2	65_0
20_2	48_0
20_3	40
20_3	55
20_3	41
26_0	26_1
26_1	34_0
34_0	34_1
34_0	34_4
34_0	63_0
34_1	34_2
34_1	34_3
34_1	60
34_4	58
46_0	46_1
46_1	33
63_0	63_1
65_0	65_1
65_0	65_2
23_0	23_1
48_0	48_1
dummy_root	2
